instances/shortest_path/discrete/shortest_path_4_9.kp
29333
91

[3.397454707886581 4.72426144485833 2.8427152461080345 8.483149853555526 8.8917995616185 3.4336943724961793 3.9862903119967 6.031567427272113 2.3400502763947046 3.6518085218310916]

[23 60 74 31 28 85 61 91 37 14]
